(set-logic HORN)
(set-info :source |
    Benchmark: C_VC
    Output by Princess (http://www.philipp.ruemmer.org/princess.shtml)
|)
(set-info :status unknown)
(declare-fun inv_main13 (Int Int Int Int Int Int Int Int Int Int) Bool)
(declare-fun inv_main16 (Int Int Int Int Int Int Int Int Int Int) Bool)
(declare-fun inv_main30 (Int Int Int Int Int Int Int Int Int Int Int Int) Bool)
(declare-fun inv_main35 (Int Int Int Int Int Int Int Int Int Int Int Int Int) Bool)
(declare-fun inv_main42 (Int Int Int Int Int Int Int Int Int Int Int Int) Bool)
(declare-fun inv_main5 (Int Int Int Int Int Int Int Int Int Int) Bool)
(declare-fun inv_main53 (Int Int Int Int Int Int Int Int Int Int Int Int) Bool)
(declare-fun inv_main58 (Int Int Int Int Int Int Int Int Int Int) Bool)
(assert (forall ((var0 Int)) (forall ((var1 Int)) (forall ((var2 Int)) (forall ((var3 Int)) (forall ((var4 Int)) (forall ((var5 Int)) (forall ((var6 Int)) (forall ((var7 Int)) (forall ((var8 Int)) (inv_main5 0 var5 var4 var3 var0 var8 var6 var1 var2 var7 ) ) ) ) ) ) ) ) ) ) )
(assert (forall ((var0 Int)) (forall ((var1 Int)) (forall ((var2 Int)) (forall ((var3 Int)) (forall ((var4 Int)) (forall ((var5 Int)) (forall ((var6 Int)) (forall ((var7 Int)) (forall ((var8 Int)) (forall ((var9 Int)) (or (not (and (inv_main16 var2 var7 var6 var5 var9 var0 var4 var3 var8 var1 ) (not (<= 0 (+ (+ var3 (* (- 1) var9 ) ) (- 1) ) ) ) ) ) (inv_main13 var2 var7 var6 var5 var9 var0 var4 var3 var8 var1 ) ) ) ) ) ) ) ) ) ) ) ) )
(assert (forall ((var0 Int)) (forall ((var1 Int)) (forall ((var2 Int)) (forall ((var3 Int)) (forall ((var4 Int)) (forall ((var5 Int)) (forall ((var6 Int)) (forall ((var7 Int)) (forall ((var8 Int)) (forall ((var9 Int)) (forall ((var10 Int)) (forall ((var11 Int)) (forall ((var12 Int)) (or (not (and (inv_main35 var4 var10 var9 var8 var12 var0 var7 var6 var11 var2 var5 var3 var1 ) (not (<= 0 (+ (+ (+ var9 (* (- 1) var12 ) ) (* (- 1) var11 ) ) (- 1) ) ) ) ) ) (inv_main30 var4 var10 var9 var8 var12 var0 var7 var6 var11 var2 var5 var3 ) ) ) ) ) ) ) ) ) ) ) ) ) ) ) )
(assert (forall ((var0 Int)) (forall ((var1 Int)) (forall ((var2 Int)) (forall ((var3 Int)) (forall ((var4 Int)) (forall ((var5 Int)) (forall ((var6 Int)) (forall ((var7 Int)) (forall ((var8 Int)) (forall ((var9 Int)) (forall ((var10 Int)) (forall ((var11 Int)) (or (not (and (inv_main42 var3 var9 var8 var7 var11 var0 var6 var5 var10 var1 var4 var2 ) (not (<= 0 (+ (+ (+ var8 (* (- 1) var11 ) ) (* (- 1) var10 ) ) (- 1) ) ) ) ) ) (inv_main30 var3 var9 var8 var7 var11 var0 var6 var5 var10 var1 var4 var2 ) ) ) ) ) ) ) ) ) ) ) ) ) ) )
(assert (forall ((var0 Int)) (forall ((var1 Int)) (forall ((var2 Int)) (forall ((var3 Int)) (forall ((var4 Int)) (forall ((var5 Int)) (forall ((var6 Int)) (forall ((var7 Int)) (forall ((var8 Int)) (forall ((var9 Int)) (or (not (inv_main13 var2 var7 var6 var5 var9 var0 var4 var3 var8 var1 ) ) (inv_main58 var2 var7 var6 var5 var9 var0 var4 var3 var8 var1 ) ) ) ) ) ) ) ) ) ) ) ) )
(assert (forall ((var0 Int)) (forall ((var1 Int)) (forall ((var2 Int)) (forall ((var3 Int)) (forall ((var4 Int)) (forall ((var5 Int)) (forall ((var6 Int)) (forall ((var7 Int)) (forall ((var8 Int)) (forall ((var9 Int)) (forall ((var10 Int)) (forall ((var11 Int)) (forall ((var12 Int)) (or (not (and (inv_main35 var4 var10 var9 var8 var12 var0 var7 var6 var11 var2 var5 var3 var1 ) (and (not (= var4 0 ) ) (<= 0 (+ (+ (+ var9 (* (- 1) var12 ) ) (* (- 1) var11 ) ) (- 1) ) ) ) ) ) (inv_main35 var4 var10 var9 var8 var12 var0 var7 var6 (+ var11 1 ) var11 var5 var3 (+ var1 var3 ) ) ) ) ) ) ) ) ) ) ) ) ) ) ) ) )
(assert (forall ((var0 Int)) (forall ((var1 Int)) (forall ((var2 Int)) (forall ((var3 Int)) (forall ((var4 Int)) (forall ((var5 Int)) (forall ((var6 Int)) (forall ((var7 Int)) (forall ((var8 Int)) (forall ((var9 Int)) (forall ((var10 Int)) (forall ((var11 Int)) (forall ((var12 Int)) (or (not (and (inv_main35 var4 var10 var9 var8 var12 var0 var7 var6 var11 var2 var5 var3 var1 ) (and (= var4 0 ) (<= 0 (+ (+ (+ var9 (* (- 1) var12 ) ) (* (- 1) var11 ) ) (- 1) ) ) ) ) ) (inv_main35 var4 var10 var9 var8 var12 var0 var7 var6 (+ var11 1 ) var2 var5 var3 (+ var1 var3 ) ) ) ) ) ) ) ) ) ) ) ) ) ) ) ) )
(assert (forall ((var0 Int)) (forall ((var1 Int)) (forall ((var2 Int)) (forall ((var3 Int)) (forall ((var4 Int)) (forall ((var5 Int)) (forall ((var6 Int)) (forall ((var7 Int)) (forall ((var8 Int)) (forall ((var9 Int)) (forall ((var10 Int)) (forall ((var11 Int)) (or (not (and (inv_main42 var3 var9 var8 var7 var11 var0 var6 var5 var10 var1 var4 var2 ) (and (not (= var3 0 ) ) (<= 0 (+ (+ (+ var8 (* (- 1) var11 ) ) (* (- 1) var10 ) ) (- 1) ) ) ) ) ) (inv_main42 var3 var9 var8 var7 var11 var0 var6 var5 (+ var10 1 ) var10 var4 var2 ) ) ) ) ) ) ) ) ) ) ) ) ) ) )
(assert (forall ((var0 Int)) (forall ((var1 Int)) (forall ((var2 Int)) (forall ((var3 Int)) (forall ((var4 Int)) (forall ((var5 Int)) (forall ((var6 Int)) (forall ((var7 Int)) (forall ((var8 Int)) (forall ((var9 Int)) (forall ((var10 Int)) (forall ((var11 Int)) (or (not (and (inv_main42 var3 var9 var8 var7 var11 var0 var6 var5 var10 var1 var4 var2 ) (and (= var3 0 ) (<= 0 (+ (+ (+ var8 (* (- 1) var11 ) ) (* (- 1) var10 ) ) (- 1) ) ) ) ) ) (inv_main42 var3 var9 var8 var7 var11 var0 var6 var5 (+ var10 1 ) var1 var4 var2 ) ) ) ) ) ) ) ) ) ) ) ) ) ) )
(assert (forall ((var0 Int)) (forall ((var1 Int)) (forall ((var2 Int)) (forall ((var3 Int)) (forall ((var4 Int)) (forall ((var5 Int)) (forall ((var6 Int)) (forall ((var7 Int)) (forall ((var8 Int)) (forall ((var9 Int)) (forall ((var10 Int)) (forall ((var11 Int)) (or (not (and (inv_main30 var3 var9 var8 var7 var11 var0 var6 var5 var10 var1 var4 var2 ) (and (not (= (+ var1 var11 ) var11 ) ) (not (= var3 0 ) ) ) ) ) (inv_main53 var3 var9 var8 var0 var11 var0 (+ var1 var11 ) var5 var10 var1 var4 var2 ) ) ) ) ) ) ) ) ) ) ) ) ) ) )
(assert (forall ((var0 Int)) (forall ((var1 Int)) (forall ((var2 Int)) (forall ((var3 Int)) (forall ((var4 Int)) (forall ((var5 Int)) (forall ((var6 Int)) (forall ((var7 Int)) (forall ((var8 Int)) (forall ((var9 Int)) (forall ((var10 Int)) (forall ((var11 Int)) (or (not (and (inv_main30 var3 var9 var8 var7 var11 var0 var6 var5 var10 var1 var4 var2 ) (and (= (+ var1 var11 ) var11 ) (not (= var3 0 ) ) ) ) ) (inv_main53 var3 var9 var8 var0 var11 var0 (+ var1 var11 ) var5 var10 var1 var4 var2 ) ) ) ) ) ) ) ) ) ) ) ) ) ) )
(assert (forall ((var0 Int)) (forall ((var1 Int)) (forall ((var2 Int)) (forall ((var3 Int)) (forall ((var4 Int)) (forall ((var5 Int)) (forall ((var6 Int)) (forall ((var7 Int)) (forall ((var8 Int)) (forall ((var9 Int)) (forall ((var10 Int)) (forall ((var11 Int)) (or (not (and (inv_main53 var3 var9 var8 var7 var11 var0 var6 var5 var10 var1 var4 var2 ) (and (not (= var6 var11 ) ) (<= 0 (+ (+ var8 (* (- 1) var7 ) ) (- 1) ) ) ) ) ) (inv_main53 var3 var9 var8 (+ var7 1 ) var11 var0 var6 var5 var10 var1 var4 var2 ) ) ) ) ) ) ) ) ) ) ) ) ) ) )
(assert (forall ((var0 Int)) (forall ((var1 Int)) (forall ((var2 Int)) (forall ((var3 Int)) (forall ((var4 Int)) (forall ((var5 Int)) (forall ((var6 Int)) (forall ((var7 Int)) (forall ((var8 Int)) (forall ((var9 Int)) (forall ((var10 Int)) (forall ((var11 Int)) (or (not (and (inv_main53 var3 var9 var8 var7 var11 var0 var6 var5 var10 var1 var4 var2 ) (and (= var6 var11 ) (<= 0 (+ (+ var8 (* (- 1) var7 ) ) (- 1) ) ) ) ) ) (inv_main53 var3 var9 var8 (+ var7 1 ) var11 var0 var6 var5 var10 var1 var4 var2 ) ) ) ) ) ) ) ) ) ) ) ) ) ) )
(assert (forall ((var0 Int)) (forall ((var1 Int)) (forall ((var2 Int)) (forall ((var3 Int)) (forall ((var4 Int)) (forall ((var5 Int)) (forall ((var6 Int)) (forall ((var7 Int)) (forall ((var8 Int)) (forall ((var9 Int)) (or (not (and (inv_main5 var2 var7 var6 var5 var9 var0 var4 var3 var8 var1 ) (and (<= 0 (+ var6 (- 1) ) ) (and (<= 0 var6 ) (<= 0 (+ (+ var7 (* (- 1) var6 ) ) (- 1) ) ) ) ) ) ) (inv_main16 var2 var7 var6 var5 0 var0 var4 (+ var6 (- 1) ) var8 var1 ) ) ) ) ) ) ) ) ) ) ) ) )
(assert (forall ((var0 Int)) (forall ((var1 Int)) (forall ((var2 Int)) (forall ((var3 Int)) (forall ((var4 Int)) (forall ((var5 Int)) (forall ((var6 Int)) (forall ((var7 Int)) (forall ((var8 Int)) (forall ((var9 Int)) (or (not (and (inv_main5 var2 var7 var6 var5 var9 var0 var4 var3 var8 var1 ) (and (not (<= 0 (+ var6 (- 1) ) ) ) (and (<= 0 var6 ) (<= 0 (+ (+ var7 (* (- 1) var6 ) ) (- 1) ) ) ) ) ) ) (inv_main13 var2 var7 var6 var5 var9 var0 var4 (+ var6 (- 1) ) var8 var1 ) ) ) ) ) ) ) ) ) ) ) ) )
(assert (forall ((var0 Int)) (forall ((var1 Int)) (forall ((var2 Int)) (forall ((var3 Int)) (forall ((var4 Int)) (forall ((var5 Int)) (forall ((var6 Int)) (forall ((var7 Int)) (forall ((var8 Int)) (forall ((var9 Int)) (or (not (and (inv_main16 var2 var7 var6 var5 var9 var0 var4 var3 var8 var1 ) (and (<= 0 (+ (+ 1 (* (- 1) (+ var6 (* (- 1) var9 ) ) ) ) (- 1) ) ) (<= 0 (+ (+ var3 (* (- 1) var9 ) ) (- 1) ) ) ) ) ) (inv_main30 var2 var7 var6 var5 var9 (+ var9 1 ) var4 var3 var8 (- 1) var9 1 ) ) ) ) ) ) ) ) ) ) ) ) )
(assert (forall ((var0 Int)) (forall ((var1 Int)) (forall ((var2 Int)) (forall ((var3 Int)) (forall ((var4 Int)) (forall ((var5 Int)) (forall ((var6 Int)) (forall ((var7 Int)) (forall ((var8 Int)) (forall ((var9 Int)) (or (not (and (inv_main16 var2 var7 var6 var5 var9 var0 var4 var3 var8 var1 ) (and (and (= (+ var6 (* (- 1) var9 ) ) 1 ) (not (<= 0 (+ (+ 1 (* (- 1) (+ var6 (* (- 1) var9 ) ) ) ) (- 1) ) ) ) ) (<= 0 (+ (+ var3 (* (- 1) var9 ) ) (- 1) ) ) ) ) ) (inv_main30 var2 var7 var6 var5 var9 (+ var9 1 ) var4 var3 var8 0 var9 1 ) ) ) ) ) ) ) ) ) ) ) ) )
(assert true )
(assert (forall ((var0 Int)) (forall ((var1 Int)) (forall ((var2 Int)) (forall ((var3 Int)) (forall ((var4 Int)) (forall ((var5 Int)) (forall ((var6 Int)) (forall ((var7 Int)) (forall ((var8 Int)) (forall ((var9 Int)) (or (not (and (inv_main16 var2 var7 var6 var5 var9 var0 var4 var3 var8 var1 ) (and (and (not (= (+ var6 (* (- 1) var9 ) ) 1 ) ) (not (<= 0 (+ (+ 1 (* (- 1) (+ var6 (* (- 1) var9 ) ) ) ) (- 1) ) ) ) ) (<= 0 (+ (+ var3 (* (- 1) var9 ) ) (- 1) ) ) ) ) ) (inv_main42 var2 var7 var6 var5 var9 (+ var9 1 ) var4 var3 1 0 var9 1 ) ) ) ) ) ) ) ) ) ) ) ) )
(assert (forall ((var0 Int)) (forall ((var1 Int)) (forall ((var2 Int)) (forall ((var3 Int)) (forall ((var4 Int)) (forall ((var5 Int)) (forall ((var6 Int)) (forall ((var7 Int)) (forall ((var8 Int)) (forall ((var9 Int)) (forall ((var10 Int)) (forall ((var11 Int)) (or (not (and (inv_main53 var3 var9 var8 var7 var11 var0 var6 var5 var10 var1 var4 var2 ) (not (<= 0 (+ (+ var8 (* (- 1) var7 ) ) (- 1) ) ) ) ) ) (inv_main16 var3 var9 var8 var7 (+ var11 1 ) var0 var6 var5 var10 var1 ) ) ) ) ) ) ) ) ) ) ) ) ) ) )
(assert (forall ((var0 Int)) (forall ((var1 Int)) (forall ((var2 Int)) (forall ((var3 Int)) (forall ((var4 Int)) (forall ((var5 Int)) (forall ((var6 Int)) (forall ((var7 Int)) (forall ((var8 Int)) (forall ((var9 Int)) (forall ((var10 Int)) (forall ((var11 Int)) (or (not (and (inv_main30 var3 var9 var8 var7 var11 var0 var6 var5 var10 var1 var4 var2 ) (= var3 0 ) ) ) (inv_main16 var3 var9 var8 var7 (+ var11 1 ) var0 (+ var1 var11 ) var5 var10 var1 ) ) ) ) ) ) ) ) ) ) ) ) ) ) )
(assert (forall ((var0 Int)) (forall ((var1 Int)) (forall ((var2 Int)) (forall ((var3 Int)) (forall ((var4 Int)) (forall ((var5 Int)) (forall ((var6 Int)) (forall ((var7 Int)) (forall ((var8 Int)) (forall ((var9 Int)) (not (and (inv_main13 var2 var7 var6 var5 var9 var0 var4 var3 var8 var1 ) (not (<= 0 var6 ) ) ) ) ) ) ) ) ) ) ) ) ) ) )
(assert (forall ((var0 Int)) (forall ((var1 Int)) (forall ((var2 Int)) (forall ((var3 Int)) (forall ((var4 Int)) (forall ((var5 Int)) (forall ((var6 Int)) (forall ((var7 Int)) (forall ((var8 Int)) (forall ((var9 Int)) (not (and (inv_main58 var2 var7 var6 var5 var9 var0 var4 var3 var8 var1 ) (not (<= 0 (+ (+ var7 (* (- 1) var6 ) ) (- 1) ) ) ) ) ) ) ) ) ) ) ) ) ) ) ) )
(check-sat)
